
Gurobi 10.0.2 (linux64) logging started Sun 21 Jul 2024 05:12:13 AM -05

Set parameter LogFile to value "gurobi.log"
Gurobi Optimizer version 10.0.2 build v10.0.2rc0 (linux64)

CPU model: Intel(R) Core(TM) i5-1035G1 CPU @ 1.00GHz, instruction set [SSE2|AVX|AVX2|AVX512]
Thread count: 4 physical cores, 8 logical processors, using up to 8 threads

Academic license 2446675 - for non-commercial use only - registered to mi___@epn.edu.ec
Optimize a model with 5814 rows, 3183 columns and 72019 nonzeros
Model fingerprint: 0xb7f81dff
Variable types: 0 continuous, 3183 integer (983 binary)
Coefficient statistics:
  Matrix range     [5e-01, 2e+03]
  Objective range  [1e+00, 1e+00]
  Bounds range     [1e+00, 2e+03]
  RHS range        [1e+00, 5e+03]
Presolve removed 5810 rows and 3179 columns
Presolve time: 0.04s
Presolved: 4 rows, 4 columns, 8 nonzeros
Variable types: 0 continuous, 4 integer (0 binary)
Found heuristic solution: objective 57789.000000

Root relaxation: cutoff, 0 iterations, 0.00 seconds (0.00 work units)

Explored 1 nodes (0 simplex iterations) in 0.05 seconds (0.06 work units)
Thread count was 8 (of 8 available processors)

Solution count 1: 57789 

Optimal solution found (tolerance 1.00e-04)
Best objective 5.778900000000e+04, best bound 5.778900000000e+04, gap 0.0000%
